% From JaCoP's nonogramRepository/data017.nin
 rows = 20;
 row_rule_len = 4;
 row_rules = array2d(1..rows, 1..row_rule_len, 
[
 0,0,0,1,
 0,0,0,1,
 0,0,0,1,
 0,0,1,1,
 0,0,1,1,
 0,3,4,2,
 0,7,3,2,
 0,7,3,2,
 1,6,1,2,
 0,10,2,2,
 0,0,0,17,
 0,0,0,18,
 0,0,7,11,
 0,0,4,5,
 0,1,1,5,
 1,2,1,8,
 2,1,3,7,
 3,2,2,2,
 0,11,2,1,
 0,0,14,1
]);

 cols = 25;
 col_rule_len = 6;
 col_rules = array2d(1..cols, 1..col_rule_len, 
[
 0,0,0,0,0,1,
 0,0,0,0,2,2,
 0,0,0,3,1,4,
 0,0,3,1,2,3,
 1,1,3,1,2,3,
 0,0,0,5,2,2,
 1,1,1,4,3,3,
 0,0,0,0,7,5,
 0,0,0,8,2,2,
 0,0,0,1,4,3,
 0,0,0,1,4,4,
 0,0,2,3,3,2,
 0,0,1,4,1,1,
 0,0,0,2,3,2,
 0,0,0,1,4,1,
 0,0,0,0,0,8,
 0,0,0,0,0,7,
 0,0,0,0,0,6,
 0,0,0,0,0,7,
 0,0,0,0,3,3,
 0,0,0,0,3,2,
 0,0,0,0,3,2,
 0,0,0,0,6,2,
 0,0,0,0,7,3,
 0,0,0,0,4,4
]);

